(declare-fun var0 () String)
(assert (str.in.re var0 (re.++ (re.+ (re.* (str.to.re "111"))) (re.++ (re.union (re.+ (str.to.re "}}")) (re.union (str.to.re "~") (str.to.re "0"))) (re.++ (re.+ (re.union (str.to.re "{{") (str.to.re "||"))) (re.++ (re.+ (re.+ (str.to.re "``"))) (re.++ (re.union (re.union (str.to.re "]") (str.to.re "^")) (re.* (str.to.re "_"))) (re.++ (re.* (re.+ (str.to.re "\\\\"))) (re.++ (re.* (re.union (str.to.re "@@") (str.to.re "[[["))) (re.++ (re.union (re.* (str.to.re "==")) (re.union (str.to.re ">>>") (str.to.re "???"))) (re.++ (re.+ (re.union (str.to.re ";") (str.to.re "<<"))) (re.++ (re.* (re.* (str.to.re ":::"))) (re.++ (re.+ (re.+ (str.to.re "///"))) (re.++ (re.union (re.+ (str.to.re "--")) (re.+ (str.to.re "."))) (re.++ (re.union (re.* (str.to.re "++")) (re.+ (str.to.re ","))) (re.++ (re.union (re.union (str.to.re "(") (str.to.re ")))")) (re.+ (str.to.re "**"))) (re.++ (re.+ (re.union (str.to.re "&") (str.to.re "''"))) (re.++ (re.* (re.* (str.to.re "%%%"))) (re.++ (re.union (re.+ (str.to.re "#")) (re.* (str.to.re "$$$"))) (re.++ (re.* (re.union (str.to.re "!!") (str.to.re """"))) (re.++ (re.+ (re.* (str.to.re "ZZ"))) (re.++ (re.+ (re.+ (str.to.re "YYY"))) (re.++ (re.+ (re.* (str.to.re "X"))) (re.++ (re.union (re.* (str.to.re "UU")) (re.union (str.to.re "V") (str.to.re "W"))) (re.++ (re.+ (re.+ (str.to.re "T"))) (re.++ (re.union (re.+ (str.to.re "Q")) (re.union (str.to.re "RRR") (str.to.re "SS"))) (re.++ (re.+ (re.union (str.to.re "OO") (str.to.re "PP"))) (re.++ (re.union (re.* (str.to.re "LLL")) (re.union (str.to.re "M") (str.to.re "NNN"))) (re.++ (re.* (re.+ (str.to.re "KKK"))) (re.++ (re.+ (re.* (str.to.re "JJJ"))) (re.++ (re.* (re.* (str.to.re "III"))) (re.++ (re.union (re.* (str.to.re "GG")) (re.* (str.to.re "HH"))) (re.++ (re.union (re.+ (str.to.re "DDD")) (re.union (str.to.re "E") (str.to.re "FFF"))) (re.++ (re.union (re.* (str.to.re "B")) (re.* (str.to.re "CCC"))) (re.++ (re.* (re.+ (str.to.re "A"))) (re.++ (re.* (re.union (str.to.re "yyy") (str.to.re "zz"))) (re.++ (re.* (re.+ (str.to.re "x"))) (re.++ (re.+ (re.union (str.to.re "v") (str.to.re "w"))) (re.++ (re.* (re.* (str.to.re "uu"))) (re.++ (re.+ (re.* (str.to.re "t"))) (re.++ (re.union (re.+ (str.to.re "rrr")) (re.* (str.to.re "ss"))) (re.++ (re.* (re.union (str.to.re "p") (str.to.re "qq"))) (re.++ (re.* (re.union (str.to.re "nn") (str.to.re "ooo"))) (re.++ (re.* (re.* (str.to.re "m"))) (re.++ (re.* (re.+ (str.to.re "ll"))) (re.++ (re.union (re.+ (str.to.re "i")) (re.union (str.to.re "jj") (str.to.re "k"))) (re.++ (re.union (re.* (str.to.re "ggg")) (re.* (str.to.re "hh"))) (re.++ (re.union (re.+ (str.to.re "ee")) (re.+ (str.to.re "f"))) (re.++ (re.union (re.union (str.to.re "bbb") (str.to.re "c")) (re.* (str.to.re "dd"))) (re.++ (re.union (re.+ (str.to.re "9")) (re.* (str.to.re "aa"))) (re.++ (re.union (re.union (str.to.re "6") (str.to.re "777")) (re.* (str.to.re "8"))) (re.++ (re.union (re.union (str.to.re "22") (str.to.re "3")) (re.union (str.to.re "4") (str.to.re "55"))) (re.* (re.union (str.to.re "0") (str.to.re "11")))))))))))))))))))))))))))))))))))))))))))))))))))))))
(check-sat)